
 102    4
  10   10   10   10

   0   0   0   0   0  17 2 3 4 5 6 7 8 9 10 11 12 14 15 17 18 21 23 
   4   1   1   1   1  13 54 50 46 43 42 41 39 38 37 33 24 19 13 
   4   3   2   2   2  14 64 54 52 50 47 43 42 39 38 37 36 32 22 19 
   2   2   2   2   1  13 64 54 52 46 44 41 38 37 36 33 32 27 19 
   4   3   1   3   4  12 64 50 46 43 41 39 37 36 35 33 26 19 
   6   4   6   1   3  10 54 50 43 37 36 34 32 31 20 19 
   7   3   1   1   1   7 55 47 44 41 32 28 16 
   6   2   3   2   4  13 85 63 59 52 50 46 44 43 42 41 38 37 24 
   8   4   2   4   4  11 64 56 55 52 46 39 37 32 31 27 19 
   1   1   3   1   4  11 64 59 53 44 43 41 37 36 32 30 27 
   5   3   5   2   1  12 85 79 63 55 53 52 50 43 40 37 36 29 
   3   2   1   1   2   8 56 55 54 41 37 36 33 19 
   2   3   2   2   4  13 79 73 64 63 62 59 58 52 47 44 40 36 31 
   1   1   2   5   2  11 79 64 59 49 47 45 39 37 36 34 32 
   3   2   4   5   3   8 59 53 45 44 37 36 33 25 
   5   2   2   2   6  12 73 64 59 57 52 50 49 43 40 37 34 31 
   6   2   5   2   3  10 79 73 64 63 59 49 40 37 36 31 
   6   3   1   3   3   8 64 63 59 55 53 45 37 28 
   3   4   3   2   3  12 85 79 73 63 59 58 57 53 49 48 45 40 
   1   3   1   3   1  11 79 64 62 61 59 58 51 48 44 41 38 
   9   2   1   2   1  11 85 79 73 64 59 55 53 49 47 44 40 
  10   1   1   2   2   9 79 73 59 57 55 49 44 40 34 
   5   4   2   2   5   6 64 57 49 39 33 32 
   3   4   2   3   5   8 79 73 64 55 49 48 45 32 
   2   3   3   2   3  12 84 73 71 67 64 63 62 58 57 55 48 40 
   8   3   2   1   1   9 84 63 59 57 48 47 45 44 40 
   2   2   2   2   3   9 79 73 71 67 65 63 57 49 40 
   5   2   1   3   1   5 85 79 49 40 36 
   5   2   3   3   4   8 84 73 64 62 59 48 45 44 
   5   1   2   3   4   8 85 84 67 62 58 56 55 45 
   6   2   3   3   1   7 85 84 69 61 53 48 45 
   6   1   2   4   2   6 101 84 71 67 65 40 
  10   2   4   2   3   6 78 71 68 62 48 47 
   5   2   2   3   2   6 69 63 62 61 51 48 
   9   3   2   3   5  14 98 85 76 74 73 72 71 70 68 66 65 63 62 55 
   7   3   3   2   2   7 80 74 69 67 61 57 48 
   9   1   1   2   1  14 98 83 78 77 75 74 71 70 69 68 65 61 60 58 
   9   3   4   2   3  12 101 98 84 78 75 74 72 66 65 60 57 55 
   7   4   3   2   5   6 85 84 74 73 61 48 
   9   3   3   6   3   6 77 75 69 61 60 51 
   2   2   2   3   1  13 98 84 83 78 77 75 74 73 72 70 69 66 60 
   7   1   2   2   1  13 100 98 84 83 80 77 74 71 70 66 65 61 60 
   5   3   2   5   1  14 101 99 98 97 83 80 78 74 72 71 70 66 65 62 
   7   2   1   1   3  12 100 98 80 78 75 74 72 71 70 68 66 56 
   9   4   2   3   2   7 100 99 77 76 75 71 51 
   1   3   8   1   3  14 101 99 98 97 83 77 76 74 72 71 70 69 66 65 
   1   5   3   3   4  12 101 99 98 80 77 76 75 74 69 66 65 61 
   9   1   1   2   2   9 101 98 83 77 75 70 66 65 60 
   9   4   4   2   3  11 101 99 98 95 92 84 83 82 80 76 62 
   9   2   3   6   3  13 99 98 97 93 87 84 83 80 78 77 76 75 69 
   4   2   2   3   3  10 98 93 83 82 80 78 74 72 68 66 
   3   1   5   1   3  13 100 99 95 94 93 92 91 84 83 82 80 77 74 
  10   4   3   3   6  11 98 97 96 95 94 93 92 91 90 82 74 
   3   1   2   4   1  10 101 99 98 97 94 91 90 89 81 70 
   9   2   2   1   2   7 96 93 91 83 82 80 69 
   1   5   2   2   4  10 101 97 94 92 91 88 83 82 81 76 
   5   4   4   2   1   9 100 95 94 92 91 90 89 81 70 
   1   1   4   5   2   6 95 93 91 88 81 66 
   9   3   1   1   1   4 97 93 74 66 
   8   2   4   4   3   9 99 97 96 94 93 92 90 82 76 
   3   4   3   3   2   8 96 95 93 92 89 82 81 72 
   6   2   2   1   2   8 100 96 94 93 91 89 87 75 
   7   2   1   1   1   9 99 97 95 92 91 90 89 87 81 
   3   3   4   4   2   6 95 92 89 87 83 75 
   1   2   2   2   1   6 92 91 90 89 82 81 
   1   1   4   3   3   7 96 94 92 90 89 87 86 
   5   1   3   3   4   2 97 70 
   2   4   3   4   2   5 97 89 88 87 81 
   2   4   3   4   1   5 100 95 94 88 86 
   3   2   3   1   2   4 93 88 86 82 
   6   1   4   1   1   3 88 87 81 
   6   3   3   2   4   3 91 88 86 
   8   2   4   3   1   3 92 91 87 
   9   1   3   4   4   2 88 81 
   1   2   3   5   1   2 88 81 
   6   1   3   2   2   2 89 86 
   5   4   3   3   2   2 90 86 
   5   2   1   2   2   2 95 89 
   9   2   4   1   1   2 95 89 
   4   2   4   2   1   1 81 
   1   4   2   1   2   1 86 
   2   1   4   3   3   1 87 
   6   5   1   1   4   1 90 
   1   1   1   2   3   1 96 
  10   2   1   1   2   1 86 
   7   3   2   4   2   1 102
   8   5   1   3   3   1 102
   1   2   2   1   4   1 102
   6   2   1   4   1   1 102
   9   4   2   2   3   1 102
   3   4   2   3   2   1 102
   7   3   2   4   4   1 102
   3   3   1   1   4   1 102
   3   2   3   3   1   1 102
  10   1   2   4   2   1 102
   4   1   1   1   2   1 102
   8   2   4   3   1   1 102
   1   3   1   2   2   1 102
   8   4   3   1   5   1 102
   4   4   3   1   3   1 102
   2   1   1   4   1   1 102
   0   0   0   0   0   0 
